     Program PWSCF v.7.0 starts on 19Dec2024 at  5:14:59

     R & G space division:  proc/nbgrp/npool/nimage =       2

     Reading input from pw.scf.in

     Current dimensions of program PWSCF are:
     Max number of different atomic species (ntypx) = 10
     Max number of k-points (npk) =  40000
     Max angular momentum in pseudopotentials (lmaxx) =  4
     file Cd.pbe-n-kjpaw_psl.1.0.0.UPF: wavefunction(s)  5S 4D renormalized
     file Te.pbe-n-kjpaw_psl.1.0.0.UPF: wavefunction(s)  5S 5P renormalized

     IMPORTANT: XC functional enforced from input :
     Exchange-correlation= PBE
                           (   1   4   3   4   0   0   0)
     Any further DFT definition will be discarded
     Please, verify this is what you really want

     Message from routine setup:
     using ibrav=0 with symmetry is DISCOURAGED, use correct ibrav instead

     Subspace diagonalization in iterative solution of the eigenvalue problem:
     a serial algorithm will be used

     Using Slab Decomposition

     bravais-lattice index     =            0
     lattice parameter (alat)  =       8.8580  a.u.
     unit-cell volume          =     491.4607 (a.u.)^3
     number of atoms/cell      =            2
     number of atomic types    =            2
     number of electrons       =        18.00
     number of Kohn-Sham states=           13
     kinetic-energy cutoff     =      50.0000  Ry
     charge density cutoff     =     200.0000  Ry
     scf convergence threshold =      1.0E-08
     mixing beta               =       0.7000
     number of iterations used =            8  plain     mixing
     Exchange-correlation= PBE
                           (   1   4   3   4   0   0   0)

     celldm(1)=   8.857978  celldm(2)=   0.000000  celldm(3)=   0.000000
     celldm(4)=   0.000000  celldm(5)=   0.000000  celldm(6)=   0.000000

     crystal axes: (cart. coord. in units of alat)
               a(1) = (   1.000000   0.000000   0.000000 )
               a(2) = (   0.500000   0.866025   0.000000 )
               a(3) = (   0.500000   0.288675   0.816497 )

     reciprocal axes: (cart. coord. in units 2 pi/alat)
               b(1) = (  1.000000 -0.577350 -0.408248 )
               b(2) = (  0.000000  1.154701 -0.408248 )
               b(3) = (  0.000000  0.000000  1.224745 )

     PseudoPot. # 1 for Cd read from file:
     ../Pseudopotentials/Cd.pbe-n-kjpaw_psl.1.0.0.UPF
     MD5 check sum: f937b97fdfaed69b45145e9d47a28171
     Pseudo is Projector augmented-wave + core cor, Zval = 12.0
     Generated using &quot;atomic&quot; code by A. Dal Corso  v.6.3
     Shape of augmentation charge: PSQ
     Using radial grid of 1239 points,  6 beta functions with:
                l(1) =   0
                l(2) =   0
                l(3) =   1
                l(4) =   1
                l(5) =   2
                l(6) =   2
     Q(r) pseudized with 0 coefficients

     PseudoPot. # 2 for Te read from file:
     ../Pseudopotentials/Te.pbe-n-kjpaw_psl.1.0.0.UPF
     MD5 check sum: 66247bff2bd9dbf220fbb0bf5ab56e9d
     Pseudo is Projector augmented-wave + core cor, Zval =  6.0
     Generated using &quot;atomic&quot; code by A. Dal Corso  v.6.3
     Shape of augmentation charge: PSQ
     Using radial grid of 1245 points,  6 beta functions with:
                l(1) =   0
                l(2) =   0
                l(3) =   1
                l(4) =   1
                l(5) =   2
                l(6) =   2
     Q(r) pseudized with 0 coefficients

     atomic species   valence    mass     pseudopotential
        Cd            12.00   112.41100     Cd( 1.00)
        Te             6.00   127.60000     Te( 1.00)

      6 Sym. Ops. (no inversion) found

   Cartesian axes

     site n.     atom                  positions (alat units)
         1           Te  tau(   1) = (   0.5000000   0.2886751   0.2041241  )
         2           Cd  tau(   2) = (   0.0000000   0.0000000   0.0000000  )

     number of k points=    44  Marzari-Vanderbilt smearing, width (Ry)=  0.0050
                       cart. coord. in units 2pi/alat
        k(    1) = (   0.0000000   0.0000000   0.0000000), wk =   0.0058309
        k(    2) = (   0.0000000   0.0000000   0.1749636), wk =   0.0116618
        k(    3) = (   0.0000000   0.0000000   0.3499271), wk =   0.0116618
        k(    4) = (   0.0000000   0.0000000   0.5248907), wk =   0.0116618
        k(    5) = (   0.0000000   0.1649572  -0.0583212), wk =   0.0349854
        k(    6) = (   0.0000000   0.1649572   0.1166424), wk =   0.0349854
        k(    7) = (   0.0000000   0.1649572   0.2916059), wk =   0.0349854
        k(    8) = (   0.0000000   0.1649572   0.4665695), wk =   0.0349854
        k(    9) = (   0.0000000   0.1649572  -0.5832118), wk =   0.0349854
        k(   10) = (   0.0000000   0.1649572  -0.4082483), wk =   0.0349854
        k(   11) = (   0.0000000   0.1649572  -0.2332847), wk =   0.0349854
        k(   12) = (   0.0000000   0.3299144  -0.1166424), wk =   0.0349854
        k(   13) = (   0.0000000   0.3299144   0.0583212), wk =   0.0349854
        k(   14) = (   0.0000000   0.3299144   0.2332847), wk =   0.0349854
        k(   15) = (   0.0000000   0.3299144   0.4082483), wk =   0.0349854
        k(   16) = (   0.0000000   0.3299144  -0.6415330), wk =   0.0349854
        k(   17) = (   0.0000000   0.3299144  -0.4665695), wk =   0.0349854
        k(   18) = (   0.0000000   0.3299144  -0.2916059), wk =   0.0349854
        k(   19) = (   0.0000000   0.4948717  -0.1749636), wk =   0.0349854
        k(   20) = (   0.0000000   0.4948717   0.0000000), wk =   0.0349854
        k(   21) = (   0.0000000   0.4948717   0.1749636), wk =   0.0349854
        k(   22) = (   0.0000000   0.4948717   0.3499271), wk =   0.0349854
        k(   23) = (   0.0000000   0.4948717  -0.6998542), wk =   0.0349854
        k(   24) = (   0.0000000   0.4948717  -0.5248907), wk =   0.0349854
        k(   25) = (   0.0000000   0.4948717  -0.3499271), wk =   0.0349854
        k(   26) = (   0.1428571   0.2474358  -0.1749636), wk =   0.0699708
        k(   27) = (   0.1428571   0.2474358   0.0000000), wk =   0.0349854
        k(   28) = (   0.1428571   0.2474358   0.3499271), wk =   0.0699708
        k(   29) = (   0.1428571   0.2474358  -0.6998542), wk =   0.0699708
        k(   30) = (   0.1428571   0.4123930  -0.2332847), wk =   0.0699708
        k(   31) = (   0.1428571   0.4123930  -0.0583212), wk =   0.0699708
        k(   32) = (   0.1428571   0.4123930   0.1166424), wk =   0.0699708
        k(   33) = (   0.1428571   0.4123930   0.2916059), wk =   0.0699708
        k(   34) = (   0.1428571   0.4123930  -0.7581754), wk =   0.0699708
        k(   35) = (   0.1428571   0.4123930  -0.5832118), wk =   0.0699708
        k(   36) = (   0.1428571   0.4123930  -0.4082483), wk =   0.0699708
        k(   37) = (   0.1428571  -0.5773503   0.1166424), wk =   0.0699708
        k(   38) = (   0.1428571  -0.5773503   0.4665695), wk =   0.0699708
        k(   39) = (   0.1428571  -0.5773503   0.6415330), wk =   0.0699708
        k(   40) = (   0.1428571  -0.5773503  -0.4082483), wk =   0.0349854
        k(   41) = (   0.2857143  -0.6598289   0.0583212), wk =   0.0699708
        k(   42) = (   0.2857143  -0.6598289   0.2332847), wk =   0.0699708
        k(   43) = (   0.2857143  -0.6598289   0.4082483), wk =   0.0349854
        k(   44) = (   0.2857143  -0.6598289  -0.2916059), wk =   0.0699708

     Initial potential from superposition of free atoms

     starting charge      17.9949, renormalised to      18.0000
     Starting wfcs are   13 randomized atomic wfcs
     Checking if some PAW data can be deallocated...

     Self-consistent Calculation

     iteration #  1     ecut=    50.00 Ry     beta= 0.70
     Davidson diagonalization with overlap
     ethr =  1.00E-02,  avg # of iterations =  4.2

     Threshold (ethr) on eigenvalues was too large:
     Diagonalizing with lowered threshold

     Davidson diagonalization with overlap
     ethr =  2.09E-04,  avg # of iterations =  3.3

     total energy              =    -744.47842457 Ry
     estimated scf accuracy    <       0.04044581 Ry

[...]

     total energy              =    -744.49072278 Ry
     estimated scf accuracy    <       0.00000008 Ry

     iteration #  7     ecut=    50.00 Ry     beta= 0.70
     Davidson diagonalization with overlap
     ethr =  4.34E-10,  avg # of iterations =  2.9

     End of self-consistent calculation

          k = 0.0000 0.0000 0.0000 (  2891 PWs)   bands (ev):

    -6.4598  -3.6880  -3.6880  -3.6880  -3.4758  -3.4758   4.3540   4.3540
     4.3540   4.9221   9.0027   9.0027   9.0027

[...]

          k = 0.2857-0.6598-0.2916 (  2939 PWs)   bands (ev):

    -6.0270  -3.5935  -3.5814  -3.4996  -3.4709  -3.0138   0.4865   2.1256
     2.7513   7.9418   9.0808  10.1883  11.0859

     the Fermi energy is     4.6615 ev

!    total energy              =    -744.49072281 Ry

     total all-electron energy =    -24778.631733 Ry
     estimated scf accuracy    <          6.6E-09 Ry
     smearing contrib. (-TS)   =       0.00000000 Ry
     internal energy E=F+TS    =    -744.49072281 Ry

     The total energy is F=E-TS. E is the sum of the following terms:
     one-electron contribution =     -46.48986743 Ry
     hartree contribution      =      36.93980854 Ry
     xc contribution           =     -39.43531709 Ry
     ewald contribution        =     -75.09767048 Ry
     one-center paw contrib.   =    -620.40767633 Ry

     convergence has been achieved in   7 iterations

     Forces acting on atoms (cartesian axes, Ry/au):

     atom    1 type  2   force =     0.00000000    0.00000000    0.00001276
     atom    2 type  1   force =     0.00000000    0.00000000   -0.00001276

     Total force =     0.000018     Total SCF correction =     0.000023
     SCF correction compared to forces is large: reduce conv_thr to get better values

     Computing stress (Cartesian axis) and pressure

          total   stress  (Ry/bohr**3)                   (kbar)     P=       -7.93
  -0.00005394   0.00000000  -0.00000000           -7.94        0.00       -0.00
   0.00000000  -0.00005394   0.00000000            0.00       -7.94        0.00
   0.00000000   0.00000000  -0.00005391            0.00        0.00       -7.93

     Writing all to output data dir ./outputs/cdte.save/

     General routines

     Parallel routines

   This run was terminated on:   5:15:12  19Dec2024

   JOB DONE.