     Program PWSCF v.7.0 starts on  5Jan2025 at 19:42:35

     R & G space division:  proc/nbgrp/npool/nimage =       2

     Reading input from pw.scf.n1.5Ao.in

     Current dimensions of program PWSCF are:
     Max number of different atomic species (ntypx) = 10
     Max number of k-points (npk) =  40000
     Max angular momentum in pseudopotentials (lmaxx) =  4
     file Al.pbe-n-kjpaw_psl.1.0.0.UPF: wavefunction(s)  3S 3P renormalized
     file Ga.pbe-dn-kjpaw_psl.1.0.0.UPF: wavefunction(s)  4S renormalized

     IMPORTANT: XC functional enforced from input :
     Exchange-correlation= PBE
                           (   1   4   3   4   0   0   0)
     Any further DFT definition will be discarded
     Please, verify this is what you really want

     Found identity + ( -0.5000 -0.5000  0.0000) symmetry
     This is a supercell, fractional translations are disabled
     Message from routine setup:
     using ibrav=0 with symmetry is DISCOURAGED, use correct ibrav instead

     Subspace diagonalization in iterative solution of the eigenvalue problem:
     a serial algorithm will be used

     Using Slab Decomposition

     bravais-lattice index     =            0
     lattice parameter (alat)  =      10.6974  a.u.
     unit-cell volume          =    6120.6851 (a.u.)^3
     number of atoms/cell      =           40
     number of atomic types    =            3
     number of electrons       =       260.00
     number of Kohn-Sham states=          156
     kinetic-energy cutoff     =      30.0000  Ry
     charge density cutoff     =     120.0000  Ry
     scf convergence threshold =      1.0E-07
     mixing beta               =       0.3000
     number of iterations used =            8  plain     mixing
     Exchange-correlation= PBE
                           (   1   4   3   4   0   0   0)

     celldm(1)=  10.697362  celldm(2)=   0.000000  celldm(3)=   0.000000
     celldm(4)=   0.000000  celldm(5)=   0.000000  celldm(6)=   0.000000

     crystal axes: (cart. coord. in units of alat)
               a(1) = (   1.000000   0.000000   0.000000 )
               a(2) = (   0.000000   1.000000   0.000000 )
               a(3) = (   0.000000   0.000000   5.000000 )

     reciprocal axes: (cart. coord. in units 2 pi/alat)
               b(1) = (  1.000000  0.000000  0.000000 )
               b(2) = (  0.000000  1.000000  0.000000 )
               b(3) = (  0.000000  0.000000  0.200000 )

     PseudoPot. # 1 for Al read from file:
     ../../Chapter11/Pseudopotentials/Al.pbe-n-kjpaw_psl.1.0.0.UPF
     MD5 check sum: 502b6b27b9c6270cab5dd1084b96fa6d
     Pseudo is Projector augmented-wave + core cor, Zval =  3.0
     Generated using &quot;atomic&quot; code by A. Dal Corso  v.6.3
     Shape of augmentation charge: PSQ
     Using radial grid of 1135 points,  6 beta functions with:
                l(1) =   0
                l(2) =   0
                l(3) =   1
                l(4) =   1
                l(5) =   2
                l(6) =   2
     Q(r) pseudized with 0 coefficients

     PseudoPot. # 2 for As read from file:
     ../../Chapter11/Pseudopotentials/As.pbe-n-kjpaw_psl.1.0.0.UPF
     MD5 check sum: 21b474db91924651be503153fb2dbf55
     Pseudo is Projector augmented-wave + core cor, Zval =  5.0
     Generated using &quot;atomic&quot; code by A. Dal Corso  v.6.3
     Shape of augmentation charge: PSQ
     Using radial grid of 1209 points,  4 beta functions with:
                l(1) =   0
                l(2) =   0
                l(3) =   1
                l(4) =   1
     Q(r) pseudized with 0 coefficients

     PseudoPot. # 3 for Ga read from file:
     ../../Chapter11/Pseudopotentials/Ga.pbe-dn-kjpaw_psl.1.0.0.UPF
     MD5 check sum: 50ce49cbf7e0a40ad8623bf41840a268
     Pseudo is Projector augmented-wave + core cor, Zval = 13.0
     Generated using &quot;atomic&quot; code by A. Dal Corso  v.6.3
     Shape of augmentation charge: PSQ
     Using radial grid of 1205 points,  6 beta functions with:
                l(1) =   0
                l(2) =   0
                l(3) =   1
                l(4) =   1
                l(5) =   2
                l(6) =   2
     Q(r) pseudized with 0 coefficients

     atomic species   valence    mass     pseudopotential
        Al             3.00    26.98100     Al( 1.00)
        As             5.00    74.92100     As( 1.00)
        Ga            13.00    69.72300     Ga( 1.00)

     Starting magnetic structure
     atomic species   magnetization
        Al           1.000
        As           1.000
        Ga           1.000

      8 Sym. Ops. (no inversion) found

   Cartesian axes

     site n.     atom                  positions (alat units)
         1           As  tau(   1) = (   0.2500000   0.2500000   0.2500000  )
         2           As  tau(   2) = (   0.7500000   0.2500000   0.7500000  )
         3           As  tau(   3) = (   0.7500000   0.7500000   0.2500000  )
         4           As  tau(   4) = (   0.2500000   0.7500000   0.7500000  )
         5           As  tau(   5) = (   0.2500000   0.2500000   4.2500000  )
         6           As  tau(   6) = (   0.2500000   0.2500000   2.2500000  )
         7           As  tau(   7) = (   0.2500000   0.2500000   1.2500000  )
         8           As  tau(   8) = (   0.2500000   0.2500000   3.2500000  )
         9           As  tau(   9) = (   0.7500000   0.2500000   4.7500000  )
        10           As  tau(  10) = (   0.7500000   0.2500000   2.7500000  )
        11           As  tau(  11) = (   0.7500000   0.2500000   1.7500000  )
        12           As  tau(  12) = (   0.7500000   0.2500000   3.7500000  )
        13           As  tau(  13) = (   0.7500000   0.7500000   4.2500000  )
        14           As  tau(  14) = (   0.7500000   0.7500000   2.2500000  )
        15           As  tau(  15) = (   0.7500000   0.7500000   1.2500000  )
        16           As  tau(  16) = (   0.7500000   0.7500000   3.2500000  )
        17           As  tau(  17) = (   0.2500000   0.7500000   4.7500000  )
        18           As  tau(  18) = (   0.2500000   0.7500000   2.7500000  )
        19           As  tau(  19) = (   0.2500000   0.7500000   1.7500000  )
        20           As  tau(  20) = (   0.2500000   0.7500000   3.7500000  )
        21           Al  tau(  21) = (   0.0000000   0.0000000   0.0000000  )
        22           Al  tau(  22) = (   0.5000000   0.5000000   0.0000000  )
        23           Ga  tau(  23) = (   0.5000000   0.0000000   0.5000000  )
        24           Ga  tau(  24) = (   0.0000000   0.5000000   0.5000000  )
        25           Al  tau(  25) = (   0.0000000   0.0000000   1.0000000  )
        26           Al  tau(  26) = (   0.5000000   0.5000000   1.0000000  )
        27           Ga  tau(  27) = (   0.5000000   0.0000000   1.5000000  )
        28           Ga  tau(  28) = (   0.0000000   0.5000000   1.5000000  )
        29           Al  tau(  29) = (   0.0000000   0.0000000   2.0000000  )
        30           Al  tau(  30) = (   0.5000000   0.5000000   2.0000000  )
        31           Ga  tau(  31) = (   0.5000000   0.0000000   2.5000000  )
        32           Ga  tau(  32) = (   0.0000000   0.5000000   2.5000000  )
        33           Al  tau(  33) = (   0.0000000   0.0000000   3.0000000  )
        34           Al  tau(  34) = (   0.5000000   0.5000000   3.0000000  )
        35           Ga  tau(  35) = (   0.5000000   0.0000000   3.5000000  )
        36           Ga  tau(  36) = (   0.0000000   0.5000000   3.5000000  )
        37           Al  tau(  37) = (   0.0000000   0.0000000   4.0000000  )
        38           Al  tau(  38) = (   0.5000000   0.5000000   4.0000000  )
        39           Ga  tau(  39) = (   0.5000000   0.0000000   4.5000000  )
        40           Ga  tau(  40) = (   0.0000000   0.5000000   4.5000000  )

     number of k points=     6  Marzari-Vanderbilt smearing, width (Ry)=  0.0050
                       cart. coord. in units 2pi/alat
        k(    1) = (   0.0000000   0.0000000   0.0000000), wk =   0.0370370
        k(    2) = (   0.0000000   0.0000000   0.0666667), wk =   0.0740741
        k(    3) = (   0.0000000   0.3333333   0.0000000), wk =   0.1481481
        k(    4) = (   0.0000000   0.3333333   0.0666667), wk =   0.2962963
        k(    5) = (   0.3333333   0.3333333   0.0000000), wk =   0.1481481
        k(    6) = (   0.3333333   0.3333333   0.0666667), wk =   0.2962963

     Check: negative core charge=   -0.000009
     Generating pointlists ...
     new r_m :   0.1786 (alat units)  1.9107 (a.u.) for type    1
     new r_m :   0.1786 (alat units)  1.9107 (a.u.) for type    2
     new r_m :   0.1786 (alat units)  1.9107 (a.u.) for type    3

     Initial potential from superposition of free atoms

     starting charge     259.9428, renormalised to     260.0000
     Starting wfcs are  210 randomized atomic wfcs
     Checking if some PAW data can be deallocated...

     Self-consistent Calculation

     iteration #  1     ecut=    30.00 Ry     beta= 0.30
     Davidson diagonalization with overlap
     ethr =  1.00E-02,  avg # of iterations =  3.0

     total energy              =   -6676.94365848 Ry
     estimated scf accuracy    <      67.80121457 Ry

     total magnetization       =    19.08 Bohr mag/cell
     absolute magnetization    =    19.27 Bohr mag/cell

[...]

     total energy              =   -6694.91930259 Ry
     estimated scf accuracy    <       0.00000019 Ry

[...]

     iteration # 15     ecut=    30.00 Ry     beta= 0.30
     Davidson diagonalization with overlap
     ethr =  7.38E-11,  avg # of iterations =  2.8

     Magnetic moment per site  (integrated on atomic sphere of radius R)
     atom   1 (R=0.179)  charge=  2.7699  magn=  0.0000
     atom   2 (R=0.179)  charge=  2.7699  magn=  0.0000
     atom   3 (R=0.179)  charge=  2.7699  magn=  0.0000
     atom   4 (R=0.179)  charge=  2.7699  magn=  0.0000
     atom   5 (R=0.179)  charge=  2.7699  magn=  0.0000
     atom   6 (R=0.179)  charge=  2.7699  magn=  0.0000
     atom   7 (R=0.179)  charge=  2.7699  magn=  0.0000
     atom   8 (R=0.179)  charge=  2.7699  magn=  0.0000
     atom   9 (R=0.179)  charge=  2.7699  magn=  0.0000
     atom  10 (R=0.179)  charge=  2.7699  magn=  0.0000
     atom  11 (R=0.179)  charge=  2.7699  magn=  0.0000
     atom  12 (R=0.179)  charge=  2.7699  magn=  0.0000
     atom  13 (R=0.179)  charge=  2.7699  magn=  0.0000
     atom  14 (R=0.179)  charge=  2.7699  magn=  0.0000
     atom  15 (R=0.179)  charge=  2.7699  magn=  0.0000
     atom  16 (R=0.179)  charge=  2.7699  magn=  0.0000
     atom  17 (R=0.179)  charge=  2.7699  magn=  0.0000
     atom  18 (R=0.179)  charge=  2.7699  magn=  0.0000
     atom  19 (R=0.179)  charge=  2.7699  magn=  0.0000
     atom  20 (R=0.179)  charge=  2.7699  magn=  0.0000
     atom  21 (R=0.179)  charge=  1.0813  magn= -0.0000
     atom  22 (R=0.179)  charge=  1.0813  magn= -0.0000
     atom  23 (R=0.179)  charge= 11.0474  magn= -0.0000
     atom  24 (R=0.179)  charge= 11.0474  magn= -0.0000
     atom  25 (R=0.179)  charge=  1.0807  magn= -0.0000
     atom  26 (R=0.179)  charge=  1.0807  magn= -0.0000
     atom  27 (R=0.179)  charge= 11.0473  magn= -0.0000
     atom  28 (R=0.179)  charge= 11.0473  magn= -0.0000
     atom  29 (R=0.179)  charge=  1.0810  magn= -0.0000
     atom  30 (R=0.179)  charge=  1.0810  magn= -0.0000
     atom  31 (R=0.179)  charge= 11.0475  magn= -0.0000
     atom  32 (R=0.179)  charge= 11.0475  magn= -0.0000
     atom  33 (R=0.179)  charge=  1.0810  magn= -0.0000
     atom  34 (R=0.179)  charge=  1.0810  magn= -0.0000
     atom  35 (R=0.179)  charge= 11.0473  magn= -0.0000
     atom  36 (R=0.179)  charge= 11.0473  magn= -0.0000
     atom  37 (R=0.179)  charge=  1.0807  magn= -0.0000
     atom  38 (R=0.179)  charge=  1.0807  magn= -0.0000
     atom  39 (R=0.179)  charge= 11.0474  magn= -0.0000
     atom  40 (R=0.179)  charge= 11.0474  magn= -0.0000

     End of self-consistent calculation

 ------ SPIN UP ------------

          k = 0.0000 0.0000 0.0000 ( 17017 PWs)   bands (ev):

    -8.9562  -8.9562  -8.9539  -8.9538  -8.9521  -8.9333  -8.9333  -8.9331
    -8.9331  -8.9317  -8.9317  -8.9310  -8.9310  -8.9308  -8.9308  -8.8788
    -8.8788  -8.8783  -8.8783  -8.8781  -8.8781  -8.8775  -8.8775  -8.8774
    -8.8774  -8.8516  -8.8514  -8.8514  -8.8513  -8.8513  -8.8447  -8.8444
    -8.8434  -8.8431  -8.8429  -8.8429  -8.8428  -8.8427  -8.8427  -8.8424
    -8.8280  -8.8280  -8.8269  -8.8259  -8.8255  -8.8219  -8.8218  -8.8217
    -8.8212  -8.8212  -6.5252  -6.3860  -6.3860  -6.0018  -6.0017  -5.2755
    -5.2754  -4.6145  -4.6145  -4.2633  -4.2604  -4.2604  -4.2446  -4.2446
    -4.2446  -4.2446  -4.2199  -4.2199  -4.2198  -4.2198  -0.8802  -0.8128
    -0.8127  -0.6889  -0.6889  -0.3480   0.1779   0.1779   0.2206   0.3021
     0.3021   0.4598   0.4599   1.3276   1.3276   2.4300   2.4301   2.6513
     2.6513   2.7465   2.7465   2.7465   2.7465   2.9504   2.9504   3.0789
     3.0789   3.0943   3.0943   3.0944   3.0944   3.0973   3.0973   3.3425
     3.3624   3.3624   3.3639   3.3639   3.3934   3.5170   3.5170   3.5171
     3.5171   3.9504   3.9504   3.9504   3.9504   4.6079   4.6080   4.7185
     4.7185   4.7185   4.7185   5.4819   5.4819   5.4819   5.4819   5.8162
     5.8978   5.8978   6.8919   7.2947   7.2947   7.3181   7.3234   7.3234
     7.4371   7.6953   7.6954   8.0184   8.0543   8.0543   8.0543   8.0543
     8.1283   8.1284   8.1341   8.1344   8.3660   8.5134   8.5135   8.5500
     8.5500   9.0076   9.0076   9.0341

[...]

 ------ SPIN DOWN ----------

[...]

          k = 0.3333 0.3333 0.0667 ( 16938 PWs)   bands (ev):

    -8.9427  -8.9418  -8.9410  -8.9395  -8.9389  -8.9389  -8.9383  -8.9374
    -8.9362  -8.9359  -8.9136  -8.9135  -8.9133  -8.9131  -8.9130  -8.9053
    -8.9052  -8.9051  -8.9049  -8.9048  -8.8776  -8.8772  -8.8770  -8.8764
    -8.8763  -8.8735  -8.8733  -8.8732  -8.8729  -8.8728  -8.8359  -8.8357
    -8.8346  -8.8341  -8.8341  -8.8340  -8.8338  -8.8337  -8.8337  -8.8335
    -8.8317  -8.8315  -8.8304  -8.8300  -8.8295  -8.8285  -8.8285  -8.8284
    -8.8284  -8.8283  -5.7621  -5.7259  -5.5873  -5.4913  -5.3011  -4.9782
    -4.9595  -4.9489  -4.9141  -4.8957  -4.8731  -4.7656  -4.7571  -4.7459
    -4.7093  -4.6901  -4.6665  -4.6518  -4.4802  -4.4340  -0.5465  -0.4092
    -0.2875  -0.1627  -0.1411  -0.1143  -0.0749  -0.0400  -0.0193   0.0769
     0.1552   0.3209   0.4731   0.5861   0.8368   0.9511   0.9837   1.2240
     1.8111   2.0234   2.1984   2.3708   2.8610   2.8982   2.9909   3.0162
     3.0355   3.2401   3.3531   3.3798   3.4469   3.4857   3.5182   3.6598
     3.9700   4.0025   4.0316   4.0461   4.0526   4.0729   4.1107   4.2337
     4.2555   4.2895   4.2914   4.3011   4.3352   4.3574   4.4069   4.4574
     4.5235   4.5783   4.7056   4.8170   4.9021   5.0413   5.0600   5.1799
     5.3593   5.4070   7.4650   7.5577   7.6477   8.1515   8.1975   8.2061
     8.2289   8.2532   8.4937   8.5857   8.5951   8.6212   8.6867   8.8220
     8.8718   8.8985   8.9898   9.0196   9.1998   9.4034   9.9997  10.0300
    10.1322  10.2685  10.3392  10.4213

     the Fermi energy is     6.5651 ev

!    total energy              =   -6694.91930268 Ry

     total all-electron energy =   -134177.340891 Ry
     estimated scf accuracy    <       0.00000007 Ry
     smearing contrib. (-TS)   =      -0.00000000 Ry
     internal energy E=F+TS    =   -6694.91930268 Ry

     The total energy is F=E-TS. E is the sum of the following terms:
     one-electron contribution =   -1358.81477483 Ry
     hartree contribution      =     867.56994866 Ry
     xc contribution           =    -637.63111064 Ry
     ewald contribution        =    -988.23806912 Ry
     one-center paw contrib.   =   -4577.80529675 Ry

     total magnetization       =     0.00 Bohr mag/cell
     absolute magnetization    =     0.00 Bohr mag/cell

     convergence has been achieved in  15 iterations

     Forces acting on atoms (cartesian axes, Ry/au):

     atom    1 type  2   force =     0.00000003    0.00000003   -0.01921403
     atom    2 type  2   force =     0.00000002   -0.00000002    0.01920471
     atom    3 type  2   force =    -0.00000003   -0.00000003   -0.01921403
     atom    4 type  2   force =    -0.00000002    0.00000002    0.01920471
     atom    5 type  2   force =    -0.00000002   -0.00000002   -0.01920471
     atom    6 type  2   force =    -0.00000002   -0.00000002   -0.01920373
     atom    7 type  2   force =    -0.00000008   -0.00000008   -0.01920360
     atom    8 type  2   force =    -0.00000001   -0.00000001   -0.01921795
     atom    9 type  2   force =    -0.00000003    0.00000003    0.01921403
     atom   10 type  2   force =     0.00000002   -0.00000002    0.01920373
     atom   11 type  2   force =     0.00000001   -0.00000001    0.01921795
     atom   12 type  2   force =     0.00000008   -0.00000008    0.01920360
     atom   13 type  2   force =     0.00000002    0.00000002   -0.01920471
     atom   14 type  2   force =     0.00000002    0.00000002   -0.01920373
     atom   15 type  2   force =     0.00000008    0.00000008   -0.01920360
     atom   16 type  2   force =     0.00000001    0.00000001   -0.01921795
     atom   17 type  2   force =     0.00000003   -0.00000003    0.01921403
     atom   18 type  2   force =    -0.00000002    0.00000002    0.01920373
     atom   19 type  2   force =    -0.00000001    0.00000001    0.01921795
     atom   20 type  2   force =    -0.00000008    0.00000008    0.01920360
     atom   21 type  1   force =     0.00000000    0.00000000    0.00000000
     atom   22 type  1   force =     0.00000000    0.00000000    0.00000000
     atom   23 type  3   force =     0.00000000    0.00000000    0.00005415
     atom   24 type  3   force =     0.00000000    0.00000000    0.00005415
     atom   25 type  1   force =     0.00000000    0.00000000   -0.00000150
     atom   26 type  1   force =     0.00000000    0.00000000   -0.00000153
     atom   27 type  3   force =     0.00000000    0.00000000    0.00004756
     atom   28 type  3   force =     0.00000000    0.00000000    0.00004756
     atom   29 type  1   force =     0.00000000    0.00000000   -0.00000074
     atom   30 type  1   force =     0.00000000    0.00000000   -0.00000072
     atom   31 type  3   force =     0.00000000    0.00000000    0.00000000
     atom   32 type  3   force =     0.00000000    0.00000000    0.00000000
     atom   33 type  1   force =     0.00000000    0.00000000    0.00000074
     atom   34 type  1   force =     0.00000000    0.00000000    0.00000072
     atom   35 type  3   force =     0.00000000    0.00000000   -0.00004756
     atom   36 type  3   force =     0.00000000    0.00000000   -0.00004756
     atom   37 type  1   force =     0.00000000    0.00000000    0.00000150
     atom   38 type  1   force =     0.00000000    0.00000000    0.00000153
     atom   39 type  3   force =     0.00000000    0.00000000   -0.00005415
     atom   40 type  3   force =     0.00000000    0.00000000   -0.00005415

     Total force =     0.085904     Total SCF correction =     0.000238

     Computing stress (Cartesian axis) and pressure

          total   stress  (Ry/bohr**3)                   (kbar)     P=       35.34
   0.00024603   0.00000000   0.00000000           36.19        0.00        0.00
   0.00000000   0.00024603   0.00000000            0.00       36.19        0.00
   0.00000000   0.00000000   0.00022865            0.00        0.00       33.63

     Writing all to output data dir ./outputs/gaalas_sl.save/

     General routines

     Parallel routines

   This run was terminated on:  20:15:27   5Jan2025

   JOB DONE.