     Program PWSCF v.7.0 starts on 18Dec2024 at  6:37:25

     R & G space division:  proc/nbgrp/npool/nimage =       2

     Reading input from pw.scf.w_soc.in

     Current dimensions of program PWSCF are:
     Max number of different atomic species (ntypx) = 10
     Max number of k-points (npk) =  40000
     Max angular momentum in pseudopotentials (lmaxx) =  4
     file Ga.rel-pbe-dn-kjpaw_psl.1.0.0.UPF: wavefunction(s)  4S renormalized

     IMPORTANT: XC functional enforced from input :
     Exchange-correlation= PBE
                           (   1   4   3   4   0   0   0)
     Any further DFT definition will be discarded
     Please, verify this is what you really want

     Message from routine setup:
     using ibrav=0 with symmetry is DISCOURAGED, use correct ibrav instead

     Subspace diagonalization in iterative solution of the eigenvalue problem:
     a serial algorithm will be used

     Using Slab Decomposition

     bravais-lattice index     =            0
     lattice parameter (alat)  =       7.6836  a.u.
     unit-cell volume          =     320.7602 (a.u.)^3
     number of atoms/cell      =            2
     number of atomic types    =            2
     number of electrons       =        18.00
     number of Kohn-Sham states=           26
     kinetic-energy cutoff     =      50.0000  Ry
     charge density cutoff     =     200.0000  Ry
     scf convergence threshold =      1.0E-08
     mixing beta               =       0.3000
     number of iterations used =            8  plain     mixing
     Exchange-correlation= PBE
                           (   1   4   3   4   0   0   0)
     Non magnetic calculation with spin-orbit

     celldm(1)=   7.683608  celldm(2)=   0.000000  celldm(3)=   0.000000
     celldm(4)=   0.000000  celldm(5)=   0.000000  celldm(6)=   0.000000

     crystal axes: (cart. coord. in units of alat)
               a(1) = (   1.000000   0.000000   0.000000 )
               a(2) = (   0.500000   0.866025   0.000000 )
               a(3) = (   0.500000   0.288675   0.816497 )

     reciprocal axes: (cart. coord. in units 2 pi/alat)
               b(1) = (  1.000000 -0.577350 -0.408248 )
               b(2) = (  0.000000  1.154701 -0.408248 )
               b(3) = (  0.000000  0.000000  1.224745 )

     PseudoPot. # 1 for As read from file:
     ../Pseudopotentials/As.rel-pbe-n-kjpaw_psl.1.0.0.UPF
     MD5 check sum: 64fce746f52c6128fdf7901f08bfcabb
     Pseudo is Projector augmented-wave + core cor, Zval =  5.0
     Generated using &quot;atomic&quot; code by A. Dal Corso  v.6.3
     Shape of augmentation charge: PSQ
     Using radial grid of 1209 points,  6 beta functions with:
                l(1) =   0
                l(2) =   0
                l(3) =   1
                l(4) =   1
                l(5) =   1
                l(6) =   1
     Q(r) pseudized with 0 coefficients

     PseudoPot. # 2 for Ga read from file:
     ../Pseudopotentials/Ga.rel-pbe-dn-kjpaw_psl.1.0.0.UPF
     MD5 check sum: f57628226c2638e1c4b61aff16a21354
     Pseudo is Projector augmented-wave + core cor, Zval = 13.0
     Generated using &quot;atomic&quot; code by A. Dal Corso  v.6.3
     Shape of augmentation charge: PSQ
     Using radial grid of 1205 points, 10 beta functions with:
                l(1) =   0
                l(2) =   0
                l(3) =   1
                l(4) =   1
                l(5) =   1
                l(6) =   1
                l(7) =   2
                l(8) =   2
                l(9) =   2
               l(10) =   2
     Q(r) pseudized with 0 coefficients

     atomic species   valence    mass     pseudopotential
        As             5.00    74.92100     As( 1.00)
        Ga            13.00    69.72300     Ga( 1.00)

      6 Sym. Ops. (no inversion) found

                                    s                        frac. trans.

      isym =  1     identity

 cryst.   s( 1) = (     1          0          0      )
                  (     0          1          0      )
                  (     0          0          1      )

 cart.    s( 1) = (  1.0000000  0.0000000  0.0000000 )
                  (  0.0000000  1.0000000  0.0000000 )
                  (  0.0000000  0.0000000  1.0000000 )

      isym =  2     120 deg rotation - cryst. axis [0,0,1]

[...]

      isym =  3     120 deg rotation - cryst. axis [0,0,-1]

[...]

      isym =  4     inv. 180 deg rotation - cart. axis [1,0,0]

[...]

      isym =  5     inv. 180 deg rotation - cryst. axis [0,1,0]

[...]

      isym =  6     inv. 180 deg rotation - cryst. axis [1,1,0]

 cryst.   s( 6) = (     1         -1          0      )
                  (     0         -1          0      )
                  (     0         -1          1      )

 cart.    s( 6) = (  0.5000000 -0.8660254 -0.0000000 )
                  ( -0.8660254 -0.5000000 -0.0000000 )
                  (  0.0000000  0.0000000  1.0000000 )

   Cartesian axes

     site n.     atom                  positions (alat units)
         1           As  tau(   1) = (   0.5000000   0.2886751   0.2041241  )
         2           Ga  tau(   2) = (   0.0000000   0.0000000   0.0000000  )

   Crystallographic axes

     site n.     atom                  positions (cryst. coord.)
         1           As  tau(   1) = (  0.2500000  0.2500000  0.2500000  )
         2           Ga  tau(   2) = (  0.0000000  0.0000000  0.0000000  )

     number of k points=    44  Marzari-Vanderbilt smearing, width (Ry)=  0.0050
                       cart. coord. in units 2pi/alat
        k(    1) = (   0.0000000   0.0000000   0.0000000), wk =   0.0029155
        k(    2) = (   0.0000000   0.0000000   0.1749636), wk =   0.0058309
        k(    3) = (   0.0000000   0.0000000   0.3499271), wk =   0.0058309
        k(    4) = (   0.0000000   0.0000000   0.5248907), wk =   0.0058309
        k(    5) = (   0.0000000   0.1649572  -0.0583212), wk =   0.0174927
        k(    6) = (   0.0000000   0.1649572   0.1166424), wk =   0.0174927
        k(    7) = (   0.0000000   0.1649572   0.2916059), wk =   0.0174927
        k(    8) = (   0.0000000   0.1649572   0.4665695), wk =   0.0174927
        k(    9) = (   0.0000000   0.1649572  -0.5832118), wk =   0.0174927
        k(   10) = (   0.0000000   0.1649572  -0.4082483), wk =   0.0174927
        k(   11) = (   0.0000000   0.1649572  -0.2332847), wk =   0.0174927
        k(   12) = (   0.0000000   0.3299144  -0.1166424), wk =   0.0174927
        k(   13) = (   0.0000000   0.3299144   0.0583212), wk =   0.0174927
        k(   14) = (   0.0000000   0.3299144   0.2332847), wk =   0.0174927
        k(   15) = (   0.0000000   0.3299144   0.4082483), wk =   0.0174927
        k(   16) = (   0.0000000   0.3299144  -0.6415330), wk =   0.0174927
        k(   17) = (   0.0000000   0.3299144  -0.4665695), wk =   0.0174927
        k(   18) = (   0.0000000   0.3299144  -0.2916059), wk =   0.0174927
        k(   19) = (   0.0000000   0.4948717  -0.1749636), wk =   0.0174927
        k(   20) = (   0.0000000   0.4948717   0.0000000), wk =   0.0174927
        k(   21) = (   0.0000000   0.4948717   0.1749636), wk =   0.0174927
        k(   22) = (   0.0000000   0.4948717   0.3499271), wk =   0.0174927
        k(   23) = (   0.0000000   0.4948717  -0.6998542), wk =   0.0174927
        k(   24) = (   0.0000000   0.4948717  -0.5248907), wk =   0.0174927
        k(   25) = (   0.0000000   0.4948717  -0.3499271), wk =   0.0174927
        k(   26) = (   0.1428571   0.2474358  -0.1749636), wk =   0.0349854
        k(   27) = (   0.1428571   0.2474358   0.0000000), wk =   0.0174927
        k(   28) = (   0.1428571   0.2474358   0.3499271), wk =   0.0349854
        k(   29) = (   0.1428571   0.2474358  -0.6998542), wk =   0.0349854
        k(   30) = (   0.1428571   0.4123930  -0.2332847), wk =   0.0349854
        k(   31) = (   0.1428571   0.4123930  -0.0583212), wk =   0.0349854
        k(   32) = (   0.1428571   0.4123930   0.1166424), wk =   0.0349854
        k(   33) = (   0.1428571   0.4123930   0.2916059), wk =   0.0349854
        k(   34) = (   0.1428571   0.4123930  -0.7581754), wk =   0.0349854
        k(   35) = (   0.1428571   0.4123930  -0.5832118), wk =   0.0349854
        k(   36) = (   0.1428571   0.4123930  -0.4082483), wk =   0.0349854
        k(   37) = (   0.1428571  -0.5773503   0.1166424), wk =   0.0349854
        k(   38) = (   0.1428571  -0.5773503   0.4665695), wk =   0.0349854
        k(   39) = (   0.1428571  -0.5773503   0.6415330), wk =   0.0349854
        k(   40) = (   0.1428571  -0.5773503  -0.4082483), wk =   0.0174927
        k(   41) = (   0.2857143  -0.6598289   0.0583212), wk =   0.0349854
        k(   42) = (   0.2857143  -0.6598289   0.2332847), wk =   0.0349854
        k(   43) = (   0.2857143  -0.6598289   0.4082483), wk =   0.0174927
        k(   44) = (   0.2857143  -0.6598289  -0.2916059), wk =   0.0349854

                       cryst. coord.
        k(    1) = (   0.0000000   0.0000000   0.0000000), wk =   0.0029155
        k(    2) = (   0.0000000   0.0000000   0.1428571), wk =   0.0058309
        k(    3) = (   0.0000000   0.0000000   0.2857143), wk =   0.0058309
        k(    4) = (   0.0000000   0.0000000   0.4285714), wk =   0.0058309
        k(    5) = (   0.0000000   0.1428571  -0.0000000), wk =   0.0174927
        k(    6) = (   0.0000000   0.1428571   0.1428571), wk =   0.0174927
        k(    7) = (   0.0000000   0.1428571   0.2857143), wk =   0.0174927
        k(    8) = (   0.0000000   0.1428571   0.4285714), wk =   0.0174927
        k(    9) = (   0.0000000   0.1428571  -0.4285714), wk =   0.0174927
        k(   10) = (   0.0000000   0.1428571  -0.2857143), wk =   0.0174927
        k(   11) = (   0.0000000   0.1428571  -0.1428571), wk =   0.0174927
        k(   12) = (   0.0000000   0.2857143  -0.0000000), wk =   0.0174927
        k(   13) = (   0.0000000   0.2857143   0.1428571), wk =   0.0174927
        k(   14) = (   0.0000000   0.2857143   0.2857143), wk =   0.0174927
        k(   15) = (   0.0000000   0.2857143   0.4285714), wk =   0.0174927
        k(   16) = (   0.0000000   0.2857143  -0.4285714), wk =   0.0174927
        k(   17) = (   0.0000000   0.2857143  -0.2857143), wk =   0.0174927
        k(   18) = (   0.0000000   0.2857143  -0.1428571), wk =   0.0174927
        k(   19) = (   0.0000000   0.4285714   0.0000000), wk =   0.0174927
        k(   20) = (   0.0000000   0.4285714   0.1428571), wk =   0.0174927
        k(   21) = (   0.0000000   0.4285714   0.2857143), wk =   0.0174927
        k(   22) = (   0.0000000   0.4285714   0.4285714), wk =   0.0174927
        k(   23) = (   0.0000000   0.4285714  -0.4285714), wk =   0.0174927
        k(   24) = (   0.0000000   0.4285714  -0.2857143), wk =   0.0174927
        k(   25) = (   0.0000000   0.4285714  -0.1428571), wk =   0.0174927
        k(   26) = (   0.1428571   0.2857143  -0.0000000), wk =   0.0349854
        k(   27) = (   0.1428571   0.2857143   0.1428571), wk =   0.0174927
        k(   28) = (   0.1428571   0.2857143   0.4285714), wk =   0.0349854
        k(   29) = (   0.1428571   0.2857143  -0.4285714), wk =   0.0349854
        k(   30) = (   0.1428571   0.4285714   0.0000000), wk =   0.0349854
        k(   31) = (   0.1428571   0.4285714   0.1428571), wk =   0.0349854
        k(   32) = (   0.1428571   0.4285714   0.2857143), wk =   0.0349854
        k(   33) = (   0.1428571   0.4285714   0.4285714), wk =   0.0349854
        k(   34) = (   0.1428571   0.4285714  -0.4285714), wk =   0.0349854
        k(   35) = (   0.1428571   0.4285714  -0.2857143), wk =   0.0349854
        k(   36) = (   0.1428571   0.4285714  -0.1428571), wk =   0.0349854
        k(   37) = (   0.1428571  -0.4285714   0.0000000), wk =   0.0349854
        k(   38) = (   0.1428571  -0.4285714   0.2857143), wk =   0.0349854
        k(   39) = (   0.1428571  -0.4285714   0.4285714), wk =   0.0349854
        k(   40) = (   0.1428571  -0.4285714  -0.4285714), wk =   0.0174927
        k(   41) = (   0.2857143  -0.4285714   0.0000000), wk =   0.0349854
        k(   42) = (   0.2857143  -0.4285714   0.1428571), wk =   0.0349854
        k(   43) = (   0.2857143  -0.4285714   0.2857143), wk =   0.0174927
        k(   44) = (   0.2857143  -0.4285714  -0.2857143), wk =   0.0349854

     Check: negative core charge=   -0.000002

     Initial potential from superposition of free atoms

     starting charge      17.9971, renormalised to      18.0000
     Starting wfcs are   26 randomized atomic wfcs
     Checking if some PAW data can be deallocated...

     Self-consistent Calculation

     iteration #  1     ecut=    50.00 Ry     beta= 0.30
     Davidson diagonalization with overlap

     ethr =  1.00E-02,  avg # of iterations =  3.4

     Threshold (ethr) on eigenvalues was too large:
     Diagonalizing with lowered threshold

     Davidson diagonalization with overlap

[...]

     WARNING: integrated charge=    18.00009063, expected=    18.00000000

     total energy              =    -454.26717950 Ry
     estimated scf accuracy    <       0.07895409 Ry

[...]

     WARNING: integrated charge=    18.00000216, expected=    18.00000000

[...]

     total energy              =    -454.27064506 Ry
     estimated scf accuracy    <       0.00000085 Ry

     iteration # 25     ecut=    50.00 Ry     beta= 0.30
     Davidson diagonalization with overlap

     ethr =  2.40E-09,  avg # of iterations =  3.0

     End of self-consistent calculation

          k = 0.0000 0.0000 0.0000 (  1917 PWs)   bands (ev):

    -8.8224  -8.8224  -8.8224  -8.8224  -8.3922  -8.3922  -8.3477  -8.3477
    -8.3477  -8.3477  -6.2518  -6.2518   5.9063   5.9063   6.2350   6.2350
     6.2350   6.2350   6.2799   6.2799   9.7082   9.7082   9.8985   9.8985
     9.8985   9.8985

     occupation numbers
     1.0000   1.0000   1.0000   1.0000   1.0000   1.0000   1.0000   1.0000
     1.0000   1.0000   1.0000   1.0000   1.0000   1.0000   0.8246   0.8246
     0.8246   0.8246   0.3508   0.3508   0.0000   0.0000   0.0000   0.0000
     0.0000   0.0000

[...]

          k = 0.2857-0.6598-0.2916 (  1909 PWs)   bands (ev):

[...]

     occupation numbers
     1.0000   1.0000   1.0000   1.0000   1.0000   1.0000   1.0000   1.0000
     1.0000   1.0000   1.0000   1.0000   1.0000   1.0000   1.0000   1.0000
     1.0000   1.0000   0.0000   0.0000   0.0000   0.0000   0.0000   0.0000
     0.0000   0.0000

     the Fermi energy is     6.2748 ev

!    total energy              =    -454.27064518 Ry

     total all-electron energy =     -8410.506043 Ry
     estimated scf accuracy    <          6.8E-10 Ry
     smearing contrib. (-TS)   =      -0.00000773 Ry
     internal energy E=F+TS    =    -454.27063745 Ry

     The total energy is F=E-TS. E is the sum of the following terms:
     one-electron contribution =    -121.58979402 Ry
     hartree contribution      =      76.04050424 Ry
     xc contribution           =     -49.66679016 Ry
     ewald contribution        =     -91.44956394 Ry
     one-center paw contrib.   =    -267.60499357 Ry
      -> PAW hartree energy AE =       7.51020872 Ry
      -> PAW hartree energy PS =      -7.49129153 Ry
      -> PAW xc energy AE      =    -167.24330339 Ry
      -> PAW xc energy PS      =      10.97329983 Ry
      -> total E_H with PAW    =      76.05942142 Ry
      -> total E_XC with PAW   =    -205.93679372 Ry

     convergence has been achieved in  25 iterations

     Forces acting on atoms (cartesian axes, Ry/au):

     atom    1 type  1   force =     0.00000000    0.00000000   -0.00001407
     atom    2 type  2   force =     0.00000000    0.00000000    0.00001407
     The non-local contrib.  to forces
     atom    1 type  1   force =     0.00000000    0.00000000   -0.00000024
     atom    2 type  2   force =     0.00000000    0.00000000   -0.00007506
     The ionic contribution  to forces
     atom    1 type  1   force =     0.00000000   -0.00000000   -0.00000000
     atom    2 type  2   force =    -0.00000000   -0.00000000    0.00000000
     The local contribution  to forces
     atom    1 type  1   force =    -0.00000000   -0.00000000    0.00000004
     atom    2 type  2   force =     0.00000000   -0.00000000    0.00007335
     The core correction contribution to forces
     atom    1 type  1   force =     0.00000000    0.00000000    0.00000003
     atom    2 type  2   force =     0.00000000   -0.00000000    0.00000124
     The Hubbard contrib.    to forces
     atom    1 type  1   force =     0.00000000    0.00000000    0.00000000
     atom    2 type  2   force =     0.00000000    0.00000000    0.00000000
     The SCF correction term to forces
     atom    1 type  1   force =    -0.00000000    0.00000000    0.00000019
     atom    2 type  2   force =    -0.00000000   -0.00000000    0.00002863

     Total force =     0.000020     Total SCF correction =     0.000029
     SCF correction compared to forces is large: reduce conv_thr to get better values

     Computing stress (Cartesian axis) and pressure

          total   stress  (Ry/bohr**3)                   (kbar)     P=        0.02
   0.00000015   0.00000000   0.00000000            0.02        0.00        0.00
  -0.00000000   0.00000015   0.00000000           -0.00        0.02        0.00
   0.00000000  -0.00000000   0.00000015            0.00       -0.00        0.02

     kinetic stress (kbar)   6462.48      0.00      0.00
                                0.00   6462.48      0.00
                                0.00      0.00   6462.49

     local   stress (kbar)  -1092.95     -0.00     -0.00
                               -0.00  -1092.95      0.00
                               -0.00      0.00  -1092.95

     nonloc. stress (kbar)   1308.16      0.00     -0.00
                                0.00   1308.16     -0.00
                                0.00      0.00   1308.16

     hartree stress (kbar)  11624.41     -0.00     -0.00
                               -0.00  11624.41      0.00
                               -0.00      0.00  11624.41

     exc-cor stress (kbar)   6146.80      0.00      0.00
                                0.00   6146.80     -0.00
                                0.00     -0.00   6146.80

     corecor stress (kbar) -10468.88      0.00     -0.00
                                0.00 -10468.88      0.00
                               -0.00      0.00 -10468.88

     ewald   stress (kbar) -13980.01      0.00     -0.00
                                0.00 -13980.01     -0.00
                               -0.00     -0.00 -13980.01

     hubbard stress (kbar)      0.00      0.00      0.00
                                0.00      0.00      0.00
                                0.00      0.00      0.00

     DFT-D   stress (kbar)      0.00      0.00      0.00
                                0.00      0.00      0.00
                                0.00      0.00      0.00

     XDM     stress (kbar)      0.00      0.00      0.00
                                0.00      0.00      0.00
                                0.00      0.00      0.00

     dft-nl  stress (kbar)      0.00      0.00      0.00
                                0.00      0.00      0.00
                                0.00      0.00      0.00

     TS-vdW  stress (kbar)      0.00      0.00      0.00
                                0.00      0.00      0.00
                                0.00      0.00      0.00

[...]

                                0.00      0.00      0.00

     Writing all to output data dir ./outputs/gaas.save/

     General routines

     Parallel routines

     PAW routines

   This run was terminated on:   6:40:41  18Dec2024

   JOB DONE.