     Program PWSCF v.7.0 starts on 12Dec2024 at  6:41: 3

     Reading input from basic.in

     Current dimensions of program PWSCF are:
     Max number of different atomic species (ntypx) = 10
     Max number of k-points (npk) =  40000
     Max angular momentum in pseudopotentials (lmaxx) =  4
     file In.pbe-dn-kjpaw_psl.1.0.0.UPF: wavefunction(s)  5S 5P 4D renormalized

     IMPORTANT: XC functional enforced from input :
     Exchange-correlation= PBE
                           (   1   4   3   4   0   0   0)
     Any further DFT definition will be discarded
     Please, verify this is what you really want

     Message from routine setup:
     using ibrav=0 with symmetry is DISCOURAGED, use correct ibrav instead

     Subspace diagonalization in iterative solution of the eigenvalue problem:
     a serial algorithm will be used

     Using Slab Decomposition

     bravais-lattice index     =            0
     lattice parameter (alat)  =       8.2599  a.u.
     unit-cell volume          =     398.4878 (a.u.)^3
     number of atoms/cell      =            2
     number of atomic types    =            2
     number of electrons       =        18.00
     number of Kohn-Sham states=           13
     kinetic-energy cutoff     =      50.0000  Ry
     charge density cutoff     =     200.0000  Ry
     scf convergence threshold =      1.0E-08
     mixing beta               =       0.7000
     number of iterations used =            8  plain     mixing
     Exchange-correlation= PBE
                           (   1   4   3   4   0   0   0)

     celldm(1)=   8.259936  celldm(2)=   0.000000  celldm(3)=   0.000000
     celldm(4)=   0.000000  celldm(5)=   0.000000  celldm(6)=   0.000000

     crystal axes: (cart. coord. in units of alat)
               a(1) = (   1.000000   0.000000   0.000000 )
               a(2) = (   0.500000   0.866025   0.000000 )
               a(3) = (   0.500000   0.288675   0.816497 )

     reciprocal axes: (cart. coord. in units 2 pi/alat)
               b(1) = (  1.000000 -0.577350 -0.408248 )
               b(2) = (  0.000000  1.154701 -0.408248 )
               b(3) = (  0.000000  0.000000  1.224745 )

     PseudoPot. # 1 for As read from file:
     ./As.pbe-n-kjpaw_psl.1.0.0.UPF
     MD5 check sum: 21b474db91924651be503153fb2dbf55
     Pseudo is Projector augmented-wave + core cor, Zval =  5.0
     Generated using &quot;atomic&quot; code by A. Dal Corso  v.6.3
     Shape of augmentation charge: PSQ
     Using radial grid of 1209 points,  4 beta functions with:
                l(1) =   0
                l(2) =   0
                l(3) =   1
                l(4) =   1
     Q(r) pseudized with 0 coefficients

     PseudoPot. # 2 for In read from file:
     ./In.pbe-dn-kjpaw_psl.1.0.0.UPF
     MD5 check sum: 235b15e6a7fdfd96486e0ecdcb5b12c6
     Pseudo is Projector augmented-wave + core cor, Zval = 13.0
     Generated using &quot;atomic&quot; code by A. Dal Corso  v.6.3
     Shape of augmentation charge: PSQ
     Using radial grid of 1241 points,  6 beta functions with:
                l(1) =   0
                l(2) =   0
                l(3) =   1
                l(4) =   1
                l(5) =   2
                l(6) =   2
     Q(r) pseudized with 0 coefficients

     atomic species   valence    mass     pseudopotential
        As             5.00    74.92100     As( 1.00)
        In            13.00   114.81800     In( 1.00)

      6 Sym. Ops. (no inversion) found

   Cartesian axes

     site n.     atom                  positions (alat units)
         1           In  tau(   1) = (   0.5000000   0.2886751   0.2041241  )
         2           As  tau(   2) = (   0.0000000   0.0000000   0.0000000  )

     number of k points=    44  Marzari-Vanderbilt smearing, width (Ry)=  0.0050
                       cart. coord. in units 2pi/alat
        k(    1) = (   0.0000000   0.0000000   0.0000000), wk =   0.0058309
        k(    2) = (   0.0000000   0.0000000   0.1749636), wk =   0.0116618
        k(    3) = (   0.0000000   0.0000000   0.3499271), wk =   0.0116618
        k(    4) = (   0.0000000   0.0000000   0.5248907), wk =   0.0116618
        k(    5) = (   0.0000000   0.1649572  -0.0583212), wk =   0.0349854
        k(    6) = (   0.0000000   0.1649572   0.1166424), wk =   0.0349854
        k(    7) = (   0.0000000   0.1649572   0.2916059), wk =   0.0349854
        k(    8) = (   0.0000000   0.1649572   0.4665695), wk =   0.0349854
        k(    9) = (   0.0000000   0.1649572  -0.5832118), wk =   0.0349854
        k(   10) = (   0.0000000   0.1649572  -0.4082483), wk =   0.0349854
        k(   11) = (   0.0000000   0.1649572  -0.2332847), wk =   0.0349854
        k(   12) = (   0.0000000   0.3299144  -0.1166424), wk =   0.0349854
        k(   13) = (   0.0000000   0.3299144   0.0583212), wk =   0.0349854
        k(   14) = (   0.0000000   0.3299144   0.2332847), wk =   0.0349854
        k(   15) = (   0.0000000   0.3299144   0.4082483), wk =   0.0349854
        k(   16) = (   0.0000000   0.3299144  -0.6415330), wk =   0.0349854
        k(   17) = (   0.0000000   0.3299144  -0.4665695), wk =   0.0349854
        k(   18) = (   0.0000000   0.3299144  -0.2916059), wk =   0.0349854
        k(   19) = (   0.0000000   0.4948717  -0.1749636), wk =   0.0349854
        k(   20) = (   0.0000000   0.4948717   0.0000000), wk =   0.0349854
        k(   21) = (   0.0000000   0.4948717   0.1749636), wk =   0.0349854
        k(   22) = (   0.0000000   0.4948717   0.3499271), wk =   0.0349854
        k(   23) = (   0.0000000   0.4948717  -0.6998542), wk =   0.0349854
        k(   24) = (   0.0000000   0.4948717  -0.5248907), wk =   0.0349854
        k(   25) = (   0.0000000   0.4948717  -0.3499271), wk =   0.0349854
        k(   26) = (   0.1428571   0.2474358  -0.1749636), wk =   0.0699708
        k(   27) = (   0.1428571   0.2474358   0.0000000), wk =   0.0349854
        k(   28) = (   0.1428571   0.2474358   0.3499271), wk =   0.0699708
        k(   29) = (   0.1428571   0.2474358  -0.6998542), wk =   0.0699708
        k(   30) = (   0.1428571   0.4123930  -0.2332847), wk =   0.0699708
        k(   31) = (   0.1428571   0.4123930  -0.0583212), wk =   0.0699708
        k(   32) = (   0.1428571   0.4123930   0.1166424), wk =   0.0699708
        k(   33) = (   0.1428571   0.4123930   0.2916059), wk =   0.0699708
        k(   34) = (   0.1428571   0.4123930  -0.7581754), wk =   0.0699708
        k(   35) = (   0.1428571   0.4123930  -0.5832118), wk =   0.0699708
        k(   36) = (   0.1428571   0.4123930  -0.4082483), wk =   0.0699708
        k(   37) = (   0.1428571  -0.5773503   0.1166424), wk =   0.0699708
        k(   38) = (   0.1428571  -0.5773503   0.4665695), wk =   0.0699708
        k(   39) = (   0.1428571  -0.5773503   0.6415330), wk =   0.0699708
        k(   40) = (   0.1428571  -0.5773503  -0.4082483), wk =   0.0349854
        k(   41) = (   0.2857143  -0.6598289   0.0583212), wk =   0.0699708
        k(   42) = (   0.2857143  -0.6598289   0.2332847), wk =   0.0699708
        k(   43) = (   0.2857143  -0.6598289   0.4082483), wk =   0.0349854
        k(   44) = (   0.2857143  -0.6598289  -0.2916059), wk =   0.0699708

     Check: negative core charge=   -0.000003

     Initial potential from superposition of free atoms

     starting charge      17.9960, renormalised to      18.0000
     Starting wfcs are   13 randomized atomic wfcs
     Checking if some PAW data can be deallocated...

     Self-consistent Calculation

     iteration #  1     ecut=    50.00 Ry     beta= 0.70
     Davidson diagonalization with overlap
     ethr =  1.00E-02,  avg # of iterations =  3.6

     Threshold (ethr) on eigenvalues was too large:
     Diagonalizing with lowered threshold

     Davidson diagonalization with overlap
     ethr =  3.82E-04,  avg # of iterations =  1.9

     total energy              =    -586.77040052 Ry
     estimated scf accuracy    <       0.06961228 Ry

[...]

     total energy              =    -586.79244049 Ry
     estimated scf accuracy    <       0.00000007 Ry

     iteration #  7     ecut=    50.00 Ry     beta= 0.70
     Davidson diagonalization with overlap
     ethr =  4.08E-10,  avg # of iterations =  2.0

     End of self-consistent calculation

          k = 0.0000 0.0000 0.0000 (  2421 PWs)   bands (ev):

    -8.3838  -8.3838  -8.3838  -8.2849  -8.2849  -5.5558   5.3748   5.9063
     5.9063   5.9063   9.7723   9.7723   9.7723

[...]

          k = 0.2857-0.6598-0.2916 (  2379 PWs)   bands (ev):

    -8.5027  -8.3444  -8.3265  -8.2955  -8.2764  -3.8216   0.4864   2.9752
     3.7697   9.0137  10.3738  11.2738  12.3836

     the Fermi energy is     5.9308 ev

!    total energy              =    -586.79244051 Ry

     total all-electron energy =    -16285.451520 Ry
     estimated scf accuracy    <          7.5E-10 Ry
     smearing contrib. (-TS)   =      -0.00001056 Ry
     internal energy E=F+TS    =    -586.79242995 Ry

     The total energy is F=E-TS. E is the sum of the following terms:
     one-electron contribution =     -56.67626672 Ry
     hartree contribution      =      41.38358601 Ry
     xc contribution           =     -57.71574786 Ry
     ewald contribution        =     -85.06876334 Ry
     one-center paw contrib.   =    -428.71523804 Ry

     convergence has been achieved in   7 iterations

     Forces acting on atoms (cartesian axes, Ry/au):

     atom    1 type  2   force =     0.00000000    0.00000000   -0.00000313
     atom    2 type  1   force =    -0.00000000   -0.00000000    0.00000313

     Total force =     0.000004     Total SCF correction =     0.000016
     SCF correction compared to forces is large: reduce conv_thr to get better values

     Computing stress (Cartesian axis) and pressure

          total   stress  (Ry/bohr**3)                   (kbar)     P=       -4.79
  -0.00003257   0.00000000   0.00000000           -4.79        0.00        0.00
   0.00000000  -0.00003257  -0.00000000            0.00       -4.79       -0.00
   0.00000000  -0.00000000  -0.00003258            0.00       -0.00       -4.79

     Writing all to output data dir ./outputs/basic.save/

     General routines

     Parallel routines

   This run was terminated on:   6:43:49  12Dec2024

   JOB DONE.