     Program PWSCF v.7.0 starts on 16Dec2024 at  6:17:14

     R & G space division:  proc/nbgrp/npool/nimage =       2

     Reading input from pw.scf.50.in

     Current dimensions of program PWSCF are:
     Max number of different atomic species (ntypx) = 10
     Max number of k-points (npk) =  40000
     Max angular momentum in pseudopotentials (lmaxx) =  4
     file Ga.pbe-dn-kjpaw_psl.1.0.0.UPF: wavefunction(s)  4S renormalized
     file Al.pbe-n-kjpaw_psl.1.0.0.UPF: wavefunction(s)  3S 3P renormalized

     IMPORTANT: XC functional enforced from input :
     Exchange-correlation= PBE
                           (   1   4   3   4   0   0   0)
     Any further DFT definition will be discarded
     Please, verify this is what you really want

     Found identity + (  0.0000 -0.5000 -0.5000) symmetry
     This is a supercell, fractional translations are disabled
     Message from routine setup:
     using ibrav=0 with symmetry is DISCOURAGED, use correct ibrav instead

     Subspace diagonalization in iterative solution of the eigenvalue problem:
     a serial algorithm will be used

     Using Slab Decomposition

     bravais-lattice index     =            0
     lattice parameter (alat)  =      10.8663  a.u.
     unit-cell volume          =    1283.0421 (a.u.)^3
     number of atoms/cell      =            8
     number of atomic types    =            3
     number of electrons       =        52.00
     number of Kohn-Sham states=           31
     kinetic-energy cutoff     =      40.0000  Ry
     charge density cutoff     =     160.0000  Ry
     scf convergence threshold =      1.0E-08
     mixing beta               =       0.7000
     number of iterations used =            8  plain     mixing
     Exchange-correlation= PBE
                           (   1   4   3   4   0   0   0)

     celldm(1)=  10.866265  celldm(2)=   0.000000  celldm(3)=   0.000000
     celldm(4)=   0.000000  celldm(5)=   0.000000  celldm(6)=   0.000000

     crystal axes: (cart. coord. in units of alat)
               a(1) = (   1.000000   0.000000   0.000000 )
               a(2) = (   0.000000   1.000000   0.000000 )
               a(3) = (   0.000000   0.000000   1.000000 )

     reciprocal axes: (cart. coord. in units 2 pi/alat)
               b(1) = (  1.000000  0.000000  0.000000 )
               b(2) = (  0.000000  1.000000  0.000000 )
               b(3) = (  0.000000  0.000000  1.000000 )

     PseudoPot. # 1 for As read from file:
     ../Pseudopotentials/As.pbe-n-kjpaw_psl.1.0.0.UPF
     MD5 check sum: 21b474db91924651be503153fb2dbf55
     Pseudo is Projector augmented-wave + core cor, Zval =  5.0
     Generated using &quot;atomic&quot; code by A. Dal Corso  v.6.3
     Shape of augmentation charge: PSQ
     Using radial grid of 1209 points,  4 beta functions with:
                l(1) =   0
                l(2) =   0
                l(3) =   1
                l(4) =   1
     Q(r) pseudized with 0 coefficients

     PseudoPot. # 2 for Ga read from file:
     ../Pseudopotentials/Ga.pbe-dn-kjpaw_psl.1.0.0.UPF
     MD5 check sum: 50ce49cbf7e0a40ad8623bf41840a268
     Pseudo is Projector augmented-wave + core cor, Zval = 13.0
     Generated using &quot;atomic&quot; code by A. Dal Corso  v.6.3
     Shape of augmentation charge: PSQ
     Using radial grid of 1205 points,  6 beta functions with:
                l(1) =   0
                l(2) =   0
                l(3) =   1
                l(4) =   1
                l(5) =   2
                l(6) =   2
     Q(r) pseudized with 0 coefficients

     PseudoPot. # 3 for Al read from file:
     ../Pseudopotentials/Al.pbe-n-kjpaw_psl.1.0.0.UPF
     MD5 check sum: 502b6b27b9c6270cab5dd1084b96fa6d
     Pseudo is Projector augmented-wave + core cor, Zval =  3.0
     Generated using &quot;atomic&quot; code by A. Dal Corso  v.6.3
     Shape of augmentation charge: PSQ
     Using radial grid of 1135 points,  6 beta functions with:
                l(1) =   0
                l(2) =   0
                l(3) =   1
                l(4) =   1
                l(5) =   2
                l(6) =   2
     Q(r) pseudized with 0 coefficients

     atomic species   valence    mass     pseudopotential
        As             5.00    74.92100     As( 1.00)
        Ga            13.00    69.72300     Ga( 1.00)
        Al             3.00    26.98100     Al( 1.00)

      8 Sym. Ops. (no inversion) found

   Cartesian axes

     site n.     atom                  positions (alat units)
         1           As  tau(   1) = (   0.2500000   0.2500000   0.2500000  )
         2           As  tau(   2) = (   0.2500000   0.7500000   0.7500000  )
         3           As  tau(   3) = (   0.7500000   0.2500000   0.7500000  )
         4           As  tau(   4) = (   0.7500000   0.7500000   0.2500000  )
         5           Ga  tau(   5) = (   0.0000000   0.0000000   0.0000000  )
         6           Ga  tau(   6) = (   0.0000000   0.5000000   0.5000000  )
         7           Al  tau(   7) = (   0.5000000   0.0000000   0.5000000  )
         8           Al  tau(   8) = (   0.5000000   0.5000000   0.0000000  )

     number of k points=    40  Marzari-Vanderbilt smearing, width (Ry)=  0.0050
                       cart. coord. in units 2pi/alat
        k(    1) = (   0.0000000   0.0000000   0.0000000), wk =   0.0092593
        k(    2) = (   0.0000000   0.0000000   0.1666667), wk =   0.0370370
        k(    3) = (   0.0000000   0.0000000   0.3333333), wk =   0.0370370
        k(    4) = (   0.0000000   0.0000000  -0.5000000), wk =   0.0185185
        k(    5) = (   0.0000000   0.1666667   0.1666667), wk =   0.0370370
        k(    6) = (   0.0000000   0.1666667   0.3333333), wk =   0.0740741
        k(    7) = (   0.0000000   0.1666667  -0.5000000), wk =   0.0370370
        k(    8) = (   0.0000000   0.3333333   0.3333333), wk =   0.0370370
        k(    9) = (   0.0000000   0.3333333  -0.5000000), wk =   0.0370370
        k(   10) = (   0.0000000  -0.5000000  -0.5000000), wk =   0.0092593
        k(   11) = (   0.1666667   0.1666667   0.1666667), wk =   0.0740741
        k(   12) = (   0.1666667   0.1666667   0.3333333), wk =   0.1481481
        k(   13) = (   0.1666667   0.1666667  -0.5000000), wk =   0.0740741
        k(   14) = (   0.1666667   0.3333333   0.3333333), wk =   0.0740741
        k(   15) = (   0.1666667   0.3333333  -0.5000000), wk =   0.0740741
        k(   16) = (   0.1666667  -0.5000000  -0.5000000), wk =   0.0185185
        k(   17) = (   0.3333333   0.3333333   0.3333333), wk =   0.0740741
        k(   18) = (   0.3333333   0.3333333  -0.5000000), wk =   0.0740741
        k(   19) = (   0.3333333  -0.5000000  -0.5000000), wk =   0.0185185
        k(   20) = (  -0.5000000  -0.5000000  -0.5000000), wk =   0.0092593
        k(   21) = (   0.1666667   0.0000000   0.0000000), wk =   0.0185185
        k(   22) = (   0.3333333   0.0000000   0.0000000), wk =   0.0185185
        k(   23) = (  -0.5000000   0.0000000   0.0000000), wk =   0.0092593
        k(   24) = (   0.1666667  -0.1666667   0.0000000), wk =   0.0740741
        k(   25) = (   0.3333333  -0.1666667   0.0000000), wk =   0.0740741
        k(   26) = (   0.1666667   0.3333333   0.0000000), wk =   0.0740741
        k(   27) = (  -0.5000000  -0.1666667   0.0000000), wk =   0.0370370
        k(   28) = (   0.1666667  -0.5000000   0.0000000), wk =   0.0370370
        k(   29) = (   0.3333333  -0.3333333   0.0000000), wk =   0.0740741
        k(   30) = (  -0.5000000  -0.3333333   0.0000000), wk =   0.0370370
        k(   31) = (   0.3333333  -0.5000000   0.0000000), wk =   0.0370370
        k(   32) = (  -0.5000000   0.5000000   0.0000000), wk =   0.0185185
        k(   33) = (   0.3333333  -0.1666667   0.1666667), wk =   0.0740741
        k(   34) = (  -0.5000000  -0.1666667   0.1666667), wk =   0.0370370
        k(   35) = (   0.3333333  -0.3333333   0.1666667), wk =   0.1481481
        k(   36) = (  -0.5000000  -0.3333333   0.1666667), wk =   0.0740741
        k(   37) = (   0.3333333  -0.5000000   0.1666667), wk =   0.0740741
        k(   38) = (  -0.5000000   0.5000000   0.1666667), wk =   0.0370370
        k(   39) = (  -0.5000000  -0.3333333   0.3333333), wk =   0.0370370
        k(   40) = (  -0.5000000   0.5000000   0.3333333), wk =   0.0370370

     Check: negative core charge=   -0.000002

     Initial potential from superposition of free atoms

     starting charge      51.9886, renormalised to      52.0000
     Starting wfcs are   42 randomized atomic wfcs
     Checking if some PAW data can be deallocated...

     Self-consistent Calculation

     iteration #  1     ecut=    40.00 Ry     beta= 0.70
     Davidson diagonalization with overlap
     ethr =  1.00E-02,  avg # of iterations =  3.0

     Threshold (ethr) on eigenvalues was too large:
     Diagonalizing with lowered threshold

     Davidson diagonalization with overlap
     ethr =  4.10E-04,  avg # of iterations =  4.7

     total energy              =   -1338.99727267 Ry
     estimated scf accuracy    <       0.21997367 Ry

[...]

     total energy              =   -1339.04776404 Ry
     estimated scf accuracy    <       0.00000004 Ry

     iteration # 12     ecut=    40.00 Ry     beta= 0.70
     Davidson diagonalization with overlap
     ethr =  7.55E-11,  avg # of iterations =  4.0

     End of self-consistent calculation

          k = 0.0000 0.0000 0.0000 (  5449 PWs)   bands (ev):

    -9.1986  -9.1793  -9.1793  -9.1319  -9.1319  -9.1104  -9.0961  -9.0954
    -9.0814  -9.0778  -6.7239  -4.6579  -4.6560  -4.6560  -1.1482  -0.6641
    -0.1390   2.9868   2.9933   2.9933   2.9938   2.9938   3.0045   5.2681
     5.3088   5.3088   6.1016   6.8136   6.8277   6.8277   6.8850

[...]

          k =-0.5000-0.5000-0.5000 (  5520 PWs)   bands (ev):

[...]

          k = 0.3333-0.5000 0.1667 (  5480 PWs)   bands (ev):

[...]

          k =-0.5000 0.5000 0.3333 (  5524 PWs)   bands (ev):

    -9.1874  -9.1874  -9.1608  -9.1605  -9.1305  -9.1305  -9.0861  -9.0858
    -9.0854  -9.0852  -5.3746  -5.3746  -5.1683  -5.1683  -0.7308  -0.7307
    -0.1118  -0.1118   3.7405   3.7405   3.8167   3.8167   4.3202   4.3202
     4.3766   4.3766   6.8684   6.8684   7.6833   7.6833   9.6940

     the Fermi energy is     5.7968 ev

!    total energy              =   -1339.04776405 Ry

     total all-electron energy =    -26835.532082 Ry
     estimated scf accuracy    <          1.4E-09 Ry
     smearing contrib. (-TS)   =      -0.00000000 Ry
     internal energy E=F+TS    =   -1339.04776405 Ry

     The total energy is F=E-TS. E is the sum of the following terms:
     one-electron contribution =    -276.88891730 Ry
     hartree contribution      =     175.87317203 Ry
     xc contribution           =    -127.47274020 Ry
     ewald contribution        =    -194.57540674 Ry
     one-center paw contrib.   =    -915.98387183 Ry

     convergence has been achieved in  12 iterations

     Forces acting on atoms (cartesian axes, Ry/au):

     atom    1 type  1   force =     0.00825892   -0.00000358   -0.00000358
     atom    2 type  1   force =     0.00825892    0.00000358    0.00000358
     atom    3 type  1   force =    -0.00825892   -0.00000358    0.00000358
     atom    4 type  1   force =    -0.00825892    0.00000358   -0.00000358
     atom    5 type  2   force =     0.00000000    0.00000000    0.00000000
     atom    6 type  2   force =     0.00000000    0.00000000    0.00000000
     atom    7 type  3   force =     0.00000000    0.00000000    0.00000000
     atom    8 type  3   force =     0.00000000    0.00000000    0.00000000

     Total force =     0.016518     Total SCF correction =     0.000009

     Computing stress (Cartesian axis) and pressure

          total   stress  (Ry/bohr**3)                   (kbar)     P=      -12.54
  -0.00008720   0.00000000   0.00000000          -12.83        0.00        0.00
   0.00000000  -0.00008429   0.00000000            0.00      -12.40        0.00
   0.00000000   0.00000000  -0.00008429            0.00        0.00      -12.40

     Writing all to output data dir ./outputs/gaalas50.save/

     General routines

     Parallel routines

   This run was terminated on:   6:20:49  16Dec2024

   JOB DONE.