     Program PWSCF v.7.0 starts on  5Jan2025 at 22:40:58

     R & G space division:  proc/nbgrp/npool/nimage =       2

     Reading input from pw.scf.n2.5Ao.in

     Current dimensions of program PWSCF are:
     Max number of different atomic species (ntypx) = 10
     Max number of k-points (npk) =  40000
     Max angular momentum in pseudopotentials (lmaxx) =  4
     file Al.pbe-n-kjpaw_psl.1.0.0.UPF: wavefunction(s)  3S 3P renormalized
     file Ga.pbe-dn-kjpaw_psl.1.0.0.UPF: wavefunction(s)  4S renormalized

     IMPORTANT: XC functional enforced from input :
     Exchange-correlation= PBE
                           (   1   4   3   4   0   0   0)
     Any further DFT definition will be discarded
     Please, verify this is what you really want

     Found identity + ( -0.5000 -0.5000  0.0000) symmetry
     This is a supercell, fractional translations are disabled
     Message from routine setup:
     using ibrav=0 with symmetry is DISCOURAGED, use correct ibrav instead

     Subspace diagonalization in iterative solution of the eigenvalue problem:
     a serial algorithm will be used

     Using Slab Decomposition

     bravais-lattice index     =            0
     lattice parameter (alat)  =      10.6974  a.u.
     unit-cell volume          =    6120.6851 (a.u.)^3
     number of atoms/cell      =           40
     number of atomic types    =            3
     number of electrons       =       240.00
     number of Kohn-Sham states=          144
     kinetic-energy cutoff     =      30.0000  Ry
     charge density cutoff     =     120.0000  Ry
     scf convergence threshold =      1.0E-07
     mixing beta               =       0.3000
     number of iterations used =            8  plain     mixing
     Exchange-correlation= PBE
                           (   1   4   3   4   0   0   0)

     celldm(1)=  10.697362  celldm(2)=   0.000000  celldm(3)=   0.000000
     celldm(4)=   0.000000  celldm(5)=   0.000000  celldm(6)=   0.000000

     crystal axes: (cart. coord. in units of alat)
               a(1) = (   1.000000   0.000000   0.000000 )
               a(2) = (   0.000000   1.000000   0.000000 )
               a(3) = (   0.000000   0.000000   5.000000 )

     reciprocal axes: (cart. coord. in units 2 pi/alat)
               b(1) = (  1.000000  0.000000  0.000000 )
               b(2) = (  0.000000  1.000000  0.000000 )
               b(3) = (  0.000000  0.000000  0.200000 )

     PseudoPot. # 1 for Al read from file:
     ../../Chapter11/Pseudopotentials/Al.pbe-n-kjpaw_psl.1.0.0.UPF
     MD5 check sum: 502b6b27b9c6270cab5dd1084b96fa6d
     Pseudo is Projector augmented-wave + core cor, Zval =  3.0
     Generated using &quot;atomic&quot; code by A. Dal Corso  v.6.3
     Shape of augmentation charge: PSQ
     Using radial grid of 1135 points,  6 beta functions with:
                l(1) =   0
                l(2) =   0
                l(3) =   1
                l(4) =   1
                l(5) =   2
                l(6) =   2
     Q(r) pseudized with 0 coefficients

     PseudoPot. # 2 for As read from file:
     ../../Chapter11/Pseudopotentials/As.pbe-n-kjpaw_psl.1.0.0.UPF
     MD5 check sum: 21b474db91924651be503153fb2dbf55
     Pseudo is Projector augmented-wave + core cor, Zval =  5.0
     Generated using &quot;atomic&quot; code by A. Dal Corso  v.6.3
     Shape of augmentation charge: PSQ
     Using radial grid of 1209 points,  4 beta functions with:
                l(1) =   0
                l(2) =   0
                l(3) =   1
                l(4) =   1
     Q(r) pseudized with 0 coefficients

     PseudoPot. # 3 for Ga read from file:
     ../../Chapter11/Pseudopotentials/Ga.pbe-dn-kjpaw_psl.1.0.0.UPF
     MD5 check sum: 50ce49cbf7e0a40ad8623bf41840a268
     Pseudo is Projector augmented-wave + core cor, Zval = 13.0
     Generated using &quot;atomic&quot; code by A. Dal Corso  v.6.3
     Shape of augmentation charge: PSQ
     Using radial grid of 1205 points,  6 beta functions with:
                l(1) =   0
                l(2) =   0
                l(3) =   1
                l(4) =   1
                l(5) =   2
                l(6) =   2
     Q(r) pseudized with 0 coefficients

     atomic species   valence    mass     pseudopotential
        Al             3.00    26.98100     Al( 1.00)
        As             5.00    74.92100     As( 1.00)
        Ga            13.00    69.72300     Ga( 1.00)

     Starting magnetic structure
     atomic species   magnetization
        Al           1.000
        As           1.000
        Ga           1.000

      4 Sym. Ops. (no inversion) found

   Cartesian axes

     site n.     atom                  positions (alat units)
         1           As  tau(   1) = (   0.2500000   0.2500000   0.2500000  )
         2           As  tau(   2) = (   0.7500000   0.2500000   0.7500000  )
         3           As  tau(   3) = (   0.7500000   0.7500000   0.2500000  )
         4           As  tau(   4) = (   0.2500000   0.7500000   0.7500000  )
         5           As  tau(   5) = (   0.2500000   0.2500000   4.2500000  )
         6           As  tau(   6) = (   0.2500000   0.2500000   2.2500000  )
         7           As  tau(   7) = (   0.2500000   0.2500000   1.2500000  )
         8           As  tau(   8) = (   0.2500000   0.2500000   3.2500000  )
         9           As  tau(   9) = (   0.7500000   0.2500000   4.7500000  )
        10           As  tau(  10) = (   0.7500000   0.2500000   2.7500000  )
        11           As  tau(  11) = (   0.7500000   0.2500000   1.7500000  )
        12           As  tau(  12) = (   0.7500000   0.2500000   3.7500000  )
        13           As  tau(  13) = (   0.7500000   0.7500000   4.2500000  )
        14           As  tau(  14) = (   0.7500000   0.7500000   2.2500000  )
        15           As  tau(  15) = (   0.7500000   0.7500000   1.2500000  )
        16           As  tau(  16) = (   0.7500000   0.7500000   3.2500000  )
        17           As  tau(  17) = (   0.2500000   0.7500000   4.7500000  )
        18           As  tau(  18) = (   0.2500000   0.7500000   2.7500000  )
        19           As  tau(  19) = (   0.2500000   0.7500000   1.7500000  )
        20           As  tau(  20) = (   0.2500000   0.7500000   3.7500000  )
        21           Al  tau(  21) = (   0.0000000   0.0000000   0.0000000  )
        22           Al  tau(  22) = (   0.5000000   0.5000000   0.0000000  )
        23           Al  tau(  23) = (   0.5000000   0.0000000   0.5000000  )
        24           Al  tau(  24) = (   0.0000000   0.5000000   0.5000000  )
        25           Ga  tau(  25) = (   0.0000000   0.0000000   1.0000000  )
        26           Ga  tau(  26) = (   0.5000000   0.5000000   1.0000000  )
        27           Ga  tau(  27) = (   0.5000000   0.0000000   1.5000000  )
        28           Ga  tau(  28) = (   0.0000000   0.5000000   1.5000000  )
        29           Al  tau(  29) = (   0.0000000   0.0000000   2.0000000  )
        30           Al  tau(  30) = (   0.5000000   0.5000000   2.0000000  )
        31           Al  tau(  31) = (   0.5000000   0.0000000   2.5000000  )
        32           Al  tau(  32) = (   0.0000000   0.5000000   2.5000000  )
        33           Ga  tau(  33) = (   0.0000000   0.0000000   3.0000000  )
        34           Ga  tau(  34) = (   0.5000000   0.5000000   3.0000000  )
        35           Ga  tau(  35) = (   0.5000000   0.0000000   3.5000000  )
        36           Ga  tau(  36) = (   0.0000000   0.5000000   3.5000000  )
        37           Al  tau(  37) = (   0.0000000   0.0000000   4.0000000  )
        38           Al  tau(  38) = (   0.5000000   0.5000000   4.0000000  )
        39           Al  tau(  39) = (   0.5000000   0.0000000   4.5000000  )
        40           Al  tau(  40) = (   0.0000000   0.5000000   4.5000000  )

     number of k points=     8  Marzari-Vanderbilt smearing, width (Ry)=  0.0050
                       cart. coord. in units 2pi/alat
        k(    1) = (   0.0000000   0.0000000   0.0000000), wk =   0.0370370
        k(    2) = (   0.0000000   0.0000000   0.0666667), wk =   0.0740741
        k(    3) = (   0.0000000   0.3333333   0.0000000), wk =   0.1481481
        k(    4) = (   0.0000000   0.3333333   0.0666667), wk =   0.2962963
        k(    5) = (   0.3333333   0.3333333   0.0000000), wk =   0.0740741
        k(    6) = (   0.3333333   0.3333333   0.0666667), wk =   0.1481481
        k(    7) = (   0.3333333  -0.3333333   0.0000000), wk =   0.0740741
        k(    8) = (   0.3333333  -0.3333333   0.0666667), wk =   0.1481481

     Check: negative core charge=   -0.000007
     Generating pointlists ...
     new r_m :   0.1786 (alat units)  1.9107 (a.u.) for type    1
     new r_m :   0.1786 (alat units)  1.9107 (a.u.) for type    2
     new r_m :   0.1786 (alat units)  1.9107 (a.u.) for type    3

     Initial potential from superposition of free atoms

     starting charge     239.9442, renormalised to     240.0000
     Starting wfcs are  200 randomized atomic wfcs
     Checking if some PAW data can be deallocated...

     Self-consistent Calculation

     iteration #  1     ecut=    30.00 Ry     beta= 0.30
     Davidson diagonalization with overlap
     ethr =  1.00E-02,  avg # of iterations =  3.0

     total energy              =   -6202.28906334 Ry
     estimated scf accuracy    <      55.12776040 Ry

     total magnetization       =    18.23 Bohr mag/cell
     absolute magnetization    =    18.36 Bohr mag/cell

[...]

     WARNING: integrated charge=   240.00004174, expected=   240.00000000

[...]

     WARNING: integrated charge=   240.00003383, expected=   240.00000000

[...]

     iteration # 11     ecut=    30.00 Ry     beta= 0.30
     Davidson diagonalization with overlap
     c_bands:  1 eigenvalues not converged
     ethr =  9.63E-06,  avg # of iterations =  9.6

[...]

     total energy              =   -6218.19883278 Ry
     estimated scf accuracy    <       0.00000010 Ry

[...]

     iteration # 20     ecut=    30.00 Ry     beta= 0.30
     Davidson diagonalization with overlap
     ethr =  4.36E-11,  avg # of iterations =  3.0

     Magnetic moment per site  (integrated on atomic sphere of radius R)
     atom   1 (R=0.179)  charge=  2.7984  magn=  0.0000
     atom   2 (R=0.179)  charge=  2.7701  magn=  0.0000
     atom   3 (R=0.179)  charge=  2.7984  magn=  0.0000
     atom   4 (R=0.179)  charge=  2.7701  magn=  0.0000
     atom   5 (R=0.179)  charge=  2.7983  magn=  0.0000
     atom   6 (R=0.179)  charge=  2.7982  magn= -0.0000
     atom   7 (R=0.179)  charge=  2.7410  magn=  0.0000
     atom   8 (R=0.179)  charge=  2.7409  magn=  0.0000
     atom   9 (R=0.179)  charge=  2.7984  magn=  0.0000
     atom  10 (R=0.179)  charge=  2.7701  magn= -0.0000
     atom  11 (R=0.179)  charge=  2.7701  magn= -0.0000
     atom  12 (R=0.179)  charge=  2.7702  magn=  0.0000
     atom  13 (R=0.179)  charge=  2.7983  magn=  0.0000
     atom  14 (R=0.179)  charge=  2.7982  magn= -0.0000
     atom  15 (R=0.179)  charge=  2.7410  magn=  0.0000
     atom  16 (R=0.179)  charge=  2.7409  magn=  0.0000
     atom  17 (R=0.179)  charge=  2.7984  magn=  0.0000
     atom  18 (R=0.179)  charge=  2.7701  magn= -0.0000
     atom  19 (R=0.179)  charge=  2.7701  magn= -0.0000
     atom  20 (R=0.179)  charge=  2.7702  magn=  0.0000
     atom  21 (R=0.179)  charge=  1.0729  magn= -0.0000
     atom  22 (R=0.179)  charge=  1.0729  magn= -0.0000
     atom  23 (R=0.179)  charge=  1.0768  magn= -0.0000
     atom  24 (R=0.179)  charge=  1.0768  magn= -0.0000
     atom  25 (R=0.179)  charge= 11.0515  magn= -0.0000
     atom  26 (R=0.179)  charge= 11.0515  magn= -0.0000
     atom  27 (R=0.179)  charge= 11.0515  magn= -0.0000
     atom  28 (R=0.179)  charge= 11.0515  magn= -0.0000
     atom  29 (R=0.179)  charge=  1.0768  magn=  0.0000
     atom  30 (R=0.179)  charge=  1.0768  magn=  0.0000
     atom  31 (R=0.179)  charge=  1.0771  magn=  0.0000
     atom  32 (R=0.179)  charge=  1.0771  magn=  0.0000
     atom  33 (R=0.179)  charge= 11.0516  magn= -0.0000
     atom  34 (R=0.179)  charge= 11.0516  magn= -0.0000
     atom  35 (R=0.179)  charge= 11.0515  magn= -0.0000
     atom  36 (R=0.179)  charge= 11.0515  magn= -0.0000
     atom  37 (R=0.179)  charge=  1.0765  magn= -0.0000
     atom  38 (R=0.179)  charge=  1.0765  magn= -0.0000
     atom  39 (R=0.179)  charge=  1.0726  magn= -0.0000
     atom  40 (R=0.179)  charge=  1.0726  magn= -0.0000

     End of self-consistent calculation

 ------ SPIN UP ------------

          k = 0.0000 0.0000 0.0000 ( 17017 PWs)   bands (ev):

    -9.1012  -9.1008  -9.0847  -9.0846  -9.0421  -9.0417  -9.0322  -9.0317
    -9.0265  -9.0261  -8.9910  -8.9908  -8.9906  -8.9904  -8.9663  -8.9662
    -8.9659  -8.9659  -8.9620  -8.9615  -8.9564  -8.9563  -8.9556  -8.9555
    -8.9512  -8.9507  -8.9455  -8.9453  -8.9449  -8.9448  -8.9388  -8.9380
    -8.9264  -8.9262  -8.9249  -8.9248  -8.9241  -8.9232  -8.9187  -8.9187
    -6.6791  -6.6178  -6.3404  -6.0372  -6.0238  -5.4429  -5.4207  -4.8056
    -4.7043  -4.4573  -4.4529  -4.4428  -4.4411  -4.4115  -4.3883  -4.3814
    -4.3554  -4.3476  -4.3187  -4.3169  -0.9029  -0.9029  -0.8995  -0.8994
    -0.4710  -0.1458   0.0861   0.0861   0.1959   0.1959   0.2601   0.2601
     0.4069   1.3631   1.4114   2.3687   2.3687   2.4075   2.4075   2.5962
     2.6118   2.6191   2.6276   2.7911   2.8573   2.8620   2.8620   2.9210
     2.9210   2.9293   2.9656   2.9717   3.0067   3.2302   3.2302   3.2362
     3.2367   3.2367   3.2370   3.3488   3.3489   3.4204   3.4204   3.8244
     3.8244   3.8434   3.8434   4.2422   4.4910   4.4910   4.5116   4.5116
     4.6725   5.1286   5.1286   5.4507   5.4507   5.6873   5.7381   5.7381
     6.9015   7.0297   7.0514   7.0974   7.1799   7.3511   7.6134   7.6285
     7.6787   7.6788   7.7307   7.7606   7.7628   7.8437   7.9455   7.9785
     7.9985   8.1392   8.2558   8.2558   8.3500   8.4486   8.5580   8.5924

[...]

 ------ SPIN DOWN ----------

[...]

          k = 0.3333-0.3333 0.0667 ( 16938 PWs)   bands (ev):

    -9.0815  -9.0814  -9.0759  -9.0757  -9.0407  -9.0389  -9.0340  -9.0331
    -9.0160  -9.0147  -9.0135  -9.0124  -8.9851  -8.9845  -8.9801  -8.9797
    -8.9764  -8.9764  -8.9753  -8.9752  -8.9741  -8.9735  -8.9731  -8.9725
    -8.9373  -8.9371  -8.9365  -8.9360  -8.9345  -8.9340  -8.9323  -8.9313
    -8.9298  -8.9288  -8.9288  -8.9277  -8.9269  -8.9267  -8.9260  -8.9252
    -5.9130  -5.8771  -5.6446  -5.5447  -5.3207  -5.1876  -5.0569  -5.0517
    -5.0153  -5.0065  -4.9379  -4.9361  -4.9302  -4.9109  -4.8967  -4.8423
    -4.8360  -4.8013  -4.6189  -4.5726  -0.5104  -0.4770  -0.4666  -0.4513
    -0.4157  -0.4020   0.0098   0.0833   0.2109   0.2226   0.2875   0.4289
     0.4747   0.5031   0.6190   0.6421   0.7851   1.1100   1.6932   1.9354
     1.9897   2.2028   2.7245   2.7313   2.8409   2.8557   2.8901   3.1741
     3.1742   3.3060   3.3161   3.3544   3.4473   3.4601   3.8271   3.8410
     3.8742   3.8927   3.9029   3.9265   3.9663   4.0779   4.1025   4.1082
     4.1101   4.2188   4.2207   4.2259   4.2371   4.3354   4.3437   4.4607
     4.5392   4.5983   4.7525   4.8522   4.8876   4.9615   5.2290   5.2823
     7.3422   7.5916   7.7967   7.9677   8.1302   8.2137   8.2211   8.2576
     8.3158   8.3326   8.3534   8.4349   8.5280   8.5467   8.5518   8.8098
     8.8703   8.8959   9.1200   9.1636   9.8284   9.9280  10.0507  10.0558

     the Fermi energy is     6.2491 ev

!    total energy              =   -6218.19883280 Ry

     total all-electron energy =   -127372.576660 Ry
     estimated scf accuracy    <       0.00000002 Ry
     smearing contrib. (-TS)   =       0.00000000 Ry
     internal energy E=F+TS    =   -6218.19883280 Ry

     The total energy is F=E-TS. E is the sum of the following terms:
     one-electron contribution =   -1748.44552756 Ry
     hartree contribution      =    1039.97892928 Ry
     xc contribution           =    -566.58328805 Ry
     ewald contribution        =    -517.81734311 Ry
     one-center paw contrib.   =   -4425.33160337 Ry

     total magnetization       =    -0.00 Bohr mag/cell
     absolute magnetization    =     0.00 Bohr mag/cell

     convergence has been achieved in  20 iterations

     Forces acting on atoms (cartesian axes, Ry/au):

     atom    1 type  2   force =     0.00000002    0.00000002    0.00011395
     atom    2 type  2   force =     0.00000001   -0.00000001   -0.01888340
     atom    3 type  2   force =    -0.00000002   -0.00000002    0.00011395
     atom    4 type  2   force =    -0.00000001    0.00000001   -0.01888340
     atom    5 type  2   force =     0.00000001    0.00000001   -0.00013881
     atom    6 type  2   force =     0.00000003    0.00000003   -0.00000666
     atom    7 type  2   force =     0.00000002    0.00000002   -0.00003111
     atom    8 type  2   force =     0.00000005    0.00000005   -0.00000639
     atom    9 type  2   force =    -0.00000007    0.00000007   -0.00000824
     atom   10 type  2   force =    -0.00000007    0.00000007   -0.01873326
     atom   11 type  2   force =     0.00000003   -0.00000003    0.01870407
     atom   12 type  2   force =    -0.00000001    0.00000001    0.01885274
     atom   13 type  2   force =    -0.00000001   -0.00000001   -0.00013881
     atom   14 type  2   force =    -0.00000003   -0.00000003   -0.00000666
     atom   15 type  2   force =    -0.00000002   -0.00000002   -0.00003111
     atom   16 type  2   force =    -0.00000005   -0.00000005   -0.00000639
     atom   17 type  2   force =     0.00000007   -0.00000007   -0.00000824
     atom   18 type  2   force =     0.00000007   -0.00000007   -0.01873326
     atom   19 type  2   force =    -0.00000003    0.00000003    0.01870407
     atom   20 type  2   force =     0.00000001   -0.00000001    0.01885274
     atom   21 type  1   force =     0.00000000    0.00000000    0.00001201
     atom   22 type  1   force =     0.00000000    0.00000000    0.00001198
     atom   23 type  1   force =     0.00000000    0.00000000    0.00084693
     atom   24 type  1   force =     0.00000000    0.00000000    0.00084693
     atom   25 type  3   force =     0.00000000    0.00000000    0.00166917
     atom   26 type  3   force =     0.00000000    0.00000000    0.00166844
     atom   27 type  3   force =     0.00000000    0.00000000   -0.00162963
     atom   28 type  3   force =     0.00000000    0.00000000   -0.00162963
     atom   29 type  1   force =     0.00000000    0.00000000   -0.00081560
     atom   30 type  1   force =     0.00000000    0.00000000   -0.00081555
     atom   31 type  1   force =     0.00000000    0.00000000    0.00078931
     atom   32 type  1   force =     0.00000000    0.00000000    0.00078931
     atom   33 type  3   force =     0.00000000    0.00000000    0.00169767
     atom   34 type  3   force =     0.00000000    0.00000000    0.00169604
     atom   35 type  3   force =     0.00000000    0.00000000   -0.00152245
     atom   36 type  3   force =     0.00000000    0.00000000   -0.00152245
     atom   37 type  1   force =     0.00000000    0.00000000   -0.00087213
     atom   38 type  1   force =     0.00000000    0.00000000   -0.00087213
     atom   39 type  1   force =     0.00000000    0.00000000   -0.00003699
     atom   40 type  1   force =     0.00000000    0.00000000   -0.00003699

     Total force =     0.053408     Total SCF correction =     0.000208

     Computing stress (Cartesian axis) and pressure

          total   stress  (Ry/bohr**3)                   (kbar)     P=       33.56
   0.00023322   0.00000000   0.00000000           34.31        0.00        0.00
   0.00000000   0.00023322   0.00000000            0.00       34.31        0.00
   0.00000000   0.00000000   0.00021806            0.00        0.00       32.08

     Writing all to output data dir ./outputs/gaalas_sl.save/

     General routines

     Parallel routines

   This run was terminated on:  23:34: 3   5Jan2025

   JOB DONE.